(set-info :smt-lib-version 2.6)
(set-logic QF_BVFPLRA)
(set-info :source |
Generated by the tool Ultimate Automizer [1,2] which implements
an automata theoretic approach [3] to software verification.

This SMT script belongs to a set of SMT scripts that was generated by
applying Ultimate Automizer to benchmarks [4] from the SV-COMP 2023 [5,6].
This script may not contain all SMT commands that Ultimate Automizer
issued. In order to meet the restrictions for SMT-COMP benchmarks 
we dropped the commands for getting values (resp. models), 
unsatisfiable cores, and interpolants.

2023-03-21, Matthias Heizmann (heizmann@informatik.uni-freiburg.de)

[1] https://ultimate.informatik.uni-freiburg.de/automizer/
[2] Matthias Heizmann, Max Barth, Daniel Dietsch, Leonard Fichtner,
     Jochen Hoenicke, Dominik Klumpp, Mehdi Naouar, Tanja Schindler,
     Frank Schüssele, Andreas Podelski: Ultimate Automizer and the
     CommuHash Normal Form (Competition Contribution). TACAS 2023
[3] Matthias Heizmann, Jochen Hoenicke, Andreas Podelski: Software Model
     Checking for People Who Love Automata. CAV 2013
[4] https://github.com/sosy-lab/sv-benchmarks
[5] Dirk Beyer: Competition on Software Verification and
     Witness Validation: SV-COMP 2023.  TACAS 2023
[6] https://sv-comp.sosy-lab.org/2023/
|)
(set-info :license "https://creativecommons.org/licenses/by/4.0/")
(set-info :category "industrial")
(set-info :status unknown)
(declare-fun v_currentRoundingMode_6_const_205912937 () RoundingMode)
(declare-fun |v_ULTIMATE.start_main_~E~0#1_8_const_429793816| () (_ FloatingPoint 11 53))
(declare-fun |v_ULTIMATE.start_main_~E0~0#1_7_const_820133825| () (_ FloatingPoint 11 53))
(declare-fun |v_ULTIMATE.start_main_~E1~0#1_4_const_-443948281| () (_ FloatingPoint 11 53))
(declare-fun |v_ULTIMATE.start_main_~S0~0#1_4_const_1645456374| () (_ FloatingPoint 11 53))
(declare-fun |v_ULTIMATE.start_main_~S1~0#1_3_const_1463381814| () (_ FloatingPoint 11 53))
(declare-fun |v_ULTIMATE.start_main_~S~0#1_4_const_1031202706| () (_ FloatingPoint 11 53))
(declare-fun |v_ULTIMATE.start_main_~S0~0#1_5_const_1645456369| () (_ FloatingPoint 11 53))
(declare-fun |v_ULTIMATE.start_main_~S~0#1_5_const_1031202733| () (_ FloatingPoint 11 53))
(declare-fun |v_ULTIMATE.start___VERIFIER_assert_~cond#1_1_const_141593303| () (_ BitVec 32))
(declare-fun |v_ULTIMATE.start___VERIFIER_assert_#in~cond#1_1_const_1372801969| () (_ BitVec 32))
(assert (and (= |v_ULTIMATE.start_main_~S1~0#1_3_const_1463381814| |v_ULTIMATE.start_main_~S0~0#1_5_const_1645456369|) (= |v_ULTIMATE.start_main_~S~0#1_5_const_1031202733| |v_ULTIMATE.start_main_~S0~0#1_4_const_1645456374|) (= (let ((.cse0 ((_ to_fp 11 53) v_currentRoundingMode_6_const_205912937 (/ 7.0 10.0)))) (fp.sub v_currentRoundingMode_6_const_205912937 (fp.add v_currentRoundingMode_6_const_205912937 (fp.add v_currentRoundingMode_6_const_205912937 (fp.sub v_currentRoundingMode_6_const_205912937 (fp.mul v_currentRoundingMode_6_const_205912937 .cse0 |v_ULTIMATE.start_main_~E~0#1_8_const_429793816|) (fp.mul v_currentRoundingMode_6_const_205912937 |v_ULTIMATE.start_main_~E0~0#1_7_const_820133825| ((_ to_fp 11 53) v_currentRoundingMode_6_const_205912937 (/ 13.0 10.0)))) (fp.mul v_currentRoundingMode_6_const_205912937 |v_ULTIMATE.start_main_~E1~0#1_4_const_-443948281| ((_ to_fp 11 53) v_currentRoundingMode_6_const_205912937 (/ 11.0 10.0)))) (fp.mul v_currentRoundingMode_6_const_205912937 |v_ULTIMATE.start_main_~S0~0#1_4_const_1645456374| ((_ to_fp 11 53) v_currentRoundingMode_6_const_205912937 (/ 7.0 5.0)))) (fp.mul v_currentRoundingMode_6_const_205912937 |v_ULTIMATE.start_main_~S1~0#1_3_const_1463381814| .cse0))) |v_ULTIMATE.start_main_~S~0#1_4_const_1031202706|) (= |v_ULTIMATE.start___VERIFIER_assert_~cond#1_1_const_141593303| |v_ULTIMATE.start___VERIFIER_assert_#in~cond#1_1_const_1372801969|) (= (ite (let ((.cse1 ((_ to_fp 11 53) v_currentRoundingMode_6_const_205912937 4.0))) (and (fp.leq |v_ULTIMATE.start_main_~S~0#1_4_const_1031202706| .cse1) (fp.geq |v_ULTIMATE.start_main_~S~0#1_4_const_1031202706| (fp.neg .cse1)))) (_ bv1 32) (_ bv0 32)) |v_ULTIMATE.start___VERIFIER_assert_#in~cond#1_1_const_1372801969|)))
(check-sat)
(exit)
